\ENCODING=ISO-8859-1
\Problem name: IloCplex

Minimize
 obj1: 999999 x(0)(0)#0 + 18.6815416922694 x(0)(1)#1
       + 20.6155281280883 x(0)(2)#2 + 16.1245154965971 x(0)(3)#3
       + 18.1107702762748 x(0)(4)#4 + 15.1327459504216 x(0)(5)#5 + 19 x(0)(6)#6
       + 16 x(0)(7)#7 + 18.1107702762748 x(0)(8)#8 + 20.0997512422418 x(0)(9)#9
       + 16.7630546142402 x(0)(10)#10 + 19.6468827043885 x(0)(11)#11
       + 18.6815416922694 x(1)(0)#12 + 999999 x(1)(1)#13 + 2 x(1)(2)#14
       + 3.60555127546399 x(1)(3)#15 + 3 x(1)(4)#16
       + 4.24264068711928 x(1)(5)#17 + 5.09901951359278 x(1)(6)#18
       + 5.3851648071345 x(1)(7)#19 + 7 x(1)(8)#20
       + 7.28010988928052 x(1)(9)#21 + 10.1980390271856 x(1)(10)#22
       + 10.0498756211209 x(1)(11)#23 + 20.6155281280883 x(2)(0)#24
       + 2 x(2)(1)#25 + 999999 x(2)(2)#26 + 5 x(2)(3)#27
       + 3.60555127546399 x(2)(4)#28 + 5.8309518948453 x(2)(5)#29
       + 5.09901951359278 x(2)(6)#30 + 6.40312423743285 x(2)(7)#31
       + 7.28010988928052 x(2)(8)#32 + 7 x(2)(9)#33
       + 10.770329614269 x(2)(10)#34 + 10.0498756211209 x(2)(11)#35
       + 16.1245154965971 x(3)(0)#36 + 3.60555127546399 x(3)(1)#37
       + 5 x(3)(2)#38 + 999999 x(3)(3)#39 + 2 x(3)(4)#40 + x(3)(5)#41
       + 3.60555127546399 x(3)(6)#42 + 2 x(3)(7)#43
       + 4.47213595499958 x(3)(8)#44 + 5.65685424949238 x(3)(9)#45
       + 7 x(3)(10)#46 + 7.61577310586391 x(3)(11)#47
       + 18.1107702762748 x(4)(0)#48 + 3 x(4)(1)#49
       + 3.60555127546399 x(4)(2)#50 + 2 x(4)(3)#51 + 999999 x(4)(4)#52
       + 3 x(4)(5)#53 + 2.23606797749979 x(4)(6)#54
       + 2.82842712474619 x(4)(7)#55 + 4 x(4)(8)#56
       + 4.47213595499958 x(4)(9)#57 + 7.28010988928052 x(4)(10)#58
       + 7.07106781186548 x(4)(11)#59 + 15.1327459504216 x(5)(0)#60
       + 4.24264068711928 x(5)(1)#61 + 5.8309518948453 x(5)(2)#62 + x(5)(3)#63
       + 3 x(5)(4)#64 + 999999 x(5)(5)#65 + 4.47213595499958 x(5)(6)#66
       + 2.23606797749979 x(5)(7)#67 + 5 x(5)(8)#68
       + 6.40312423743285 x(5)(9)#69 + 7.07106781186548 x(5)(10)#70
       + 8.06225774829855 x(5)(11)#71 + 19 x(6)(0)#72
       + 5.09901951359278 x(6)(1)#73 + 5.09901951359278 x(6)(2)#74
       + 3.60555127546399 x(6)(3)#75 + 2.23606797749979 x(6)(4)#76
       + 4.47213595499958 x(6)(5)#77 + 999999 x(6)(6)#78 + 3 x(6)(7)#79
       + 2.23606797749979 x(6)(8)#80 + 2.23606797749979 x(6)(9)#81
       + 5.8309518948453 x(6)(10)#82 + 5 x(6)(11)#83 + 16 x(7)(0)#84
       + 5.3851648071345 x(7)(1)#85 + 6.40312423743285 x(7)(2)#86
       + 2 x(7)(3)#87 + 2.82842712474619 x(7)(4)#88
       + 2.23606797749979 x(7)(5)#89 + 3 x(7)(6)#90 + 999999 x(7)(7)#91
       + 2.82842712474619 x(7)(8)#92 + 4.47213595499958 x(7)(9)#93
       + 5 x(7)(10)#94 + 5.8309518948453 x(7)(11)#95
       + 18.1107702762748 x(8)(0)#96 + 7 x(8)(1)#97
       + 7.28010988928052 x(8)(2)#98 + 4.47213595499958 x(8)(3)#99
       + 4 x(8)(4)#100 + 5 x(8)(5)#101 + 2.23606797749979 x(8)(6)#102
       + 2.82842712474619 x(8)(7)#103 + 999999 x(8)(8)#104 + 2 x(8)(9)#105
       + 3.60555127546399 x(8)(10)#106 + 3.16227766016838 x(8)(11)#107
       + 20.0997512422418 x(9)(0)#108 + 7.28010988928052 x(9)(1)#109
       + 7 x(9)(2)#110 + 5.65685424949238 x(9)(3)#111
       + 4.47213595499958 x(9)(4)#112 + 6.40312423743285 x(9)(5)#113
       + 2.23606797749979 x(9)(6)#114 + 4.47213595499958 x(9)(7)#115
       + 2 x(9)(8)#116 + 999999 x(9)(9)#117 + 5 x(9)(10)#118
       + 3.16227766016838 x(9)(11)#119 + 16.7630546142402 x(10)(0)#120
       + 10.1980390271856 x(10)(1)#121 + 10.770329614269 x(10)(2)#122
       + 7 x(10)(3)#123 + 7.28010988928052 x(10)(4)#124
       + 7.07106781186548 x(10)(5)#125 + 5.8309518948453 x(10)(6)#126
       + 5 x(10)(7)#127 + 3.60555127546399 x(10)(8)#128 + 5 x(10)(9)#129
       + 999999 x(10)(10)#130 + 3 x(10)(11)#131 + 19.6468827043885 x(11)(0)#132
       + 10.0498756211209 x(11)(1)#133 + 10.0498756211209 x(11)(2)#134
       + 7.61577310586391 x(11)(3)#135 + 7.07106781186548 x(11)(4)#136
       + 8.06225774829855 x(11)(5)#137 + 5 x(11)(6)#138
       + 5.8309518948453 x(11)(7)#139 + 3.16227766016838 x(11)(8)#140
       + 3.16227766016838 x(11)(9)#141 + 3 x(11)(10)#142 + 999999 x(11)(11)#143
Subject To
 chegadaNoCliente(1)#0:   x(0)(1)#1 + x(2)(1)#25 + x(3)(1)#37 + x(4)(1)#49
                          + x(5)(1)#61 + x(6)(1)#73 + x(7)(1)#85 + x(8)(1)#97
                          + x(9)(1)#109 + x(10)(1)#121 + x(11)(1)#133  = 1
 chegadaNoCliente(2)#1:   x(0)(2)#2 + x(1)(2)#14 + x(3)(2)#38 + x(4)(2)#50
                          + x(5)(2)#62 + x(6)(2)#74 + x(7)(2)#86 + x(8)(2)#98
                          + x(9)(2)#110 + x(10)(2)#122 + x(11)(2)#134  = 1
 chegadaNoCliente(3)#2:   x(0)(3)#3 + x(1)(3)#15 + x(2)(3)#27 + x(4)(3)#51
                          + x(5)(3)#63 + x(6)(3)#75 + x(7)(3)#87 + x(8)(3)#99
                          + x(9)(3)#111 + x(10)(3)#123 + x(11)(3)#135  = 1
 chegadaNoCliente(4)#3:   x(0)(4)#4 + x(1)(4)#16 + x(2)(4)#28 + x(3)(4)#40
                          + x(5)(4)#64 + x(6)(4)#76 + x(7)(4)#88 + x(8)(4)#100
                          + x(9)(4)#112 + x(10)(4)#124 + x(11)(4)#136  = 1
 chegadaNoCliente(5)#4:   x(0)(5)#5 + x(1)(5)#17 + x(2)(5)#29 + x(3)(5)#41
                          + x(4)(5)#53 + x(6)(5)#77 + x(7)(5)#89 + x(8)(5)#101
                          + x(9)(5)#113 + x(10)(5)#125 + x(11)(5)#137  = 1
 chegadaNoCliente(6)#5:   x(0)(6)#6 + x(1)(6)#18 + x(2)(6)#30 + x(3)(6)#42
                          + x(4)(6)#54 + x(5)(6)#66 + x(7)(6)#90 + x(8)(6)#102
                          + x(9)(6)#114 + x(10)(6)#126 + x(11)(6)#138  = 1
 chegadaNoCliente(7)#6:   x(0)(7)#7 + x(1)(7)#19 + x(2)(7)#31 + x(3)(7)#43
                          + x(4)(7)#55 + x(5)(7)#67 + x(6)(7)#79 + x(8)(7)#103
                          + x(9)(7)#115 + x(10)(7)#127 + x(11)(7)#139  = 1
 chegadaNoCliente(8)#7:   x(0)(8)#8 + x(1)(8)#20 + x(2)(8)#32 + x(3)(8)#44
                          + x(4)(8)#56 + x(5)(8)#68 + x(6)(8)#80 + x(7)(8)#92
                          + x(9)(8)#116 + x(10)(8)#128 + x(11)(8)#140  = 1
 chegadaNoCliente(9)#8:   x(0)(9)#9 + x(1)(9)#21 + x(2)(9)#33 + x(3)(9)#45
                          + x(4)(9)#57 + x(5)(9)#69 + x(6)(9)#81 + x(7)(9)#93
                          + x(8)(9)#105 + x(10)(9)#129 + x(11)(9)#141  = 1
 chegadaNoCliente(10)#9:  x(0)(10)#10 + x(1)(10)#22 + x(2)(10)#34 + x(3)(10)#46
                          + x(4)(10)#58 + x(5)(10)#70 + x(6)(10)#82
                          + x(7)(10)#94 + x(8)(10)#106 + x(9)(10)#118
                          + x(11)(10)#142  = 1
 chegadaNoCliente(11)#10: x(0)(11)#11 + x(1)(11)#23 + x(2)(11)#35 + x(3)(11)#47
                          + x(4)(11)#59 + x(5)(11)#71 + x(6)(11)#83
                          + x(7)(11)#95 + x(8)(11)#107 + x(9)(11)#119
                          + x(10)(11)#131  = 1
 saidaDoCliente(1)#11:    x(1)(0)#12 + x(1)(2)#14 + x(1)(3)#15 + x(1)(4)#16
                          + x(1)(5)#17 + x(1)(6)#18 + x(1)(7)#19 + x(1)(8)#20
                          + x(1)(9)#21 + x(1)(10)#22 + x(1)(11)#23 + y_1#144
                           = 1
 saidaDoCliente(2)#12:    x(2)(0)#24 + x(2)(1)#25 + x(2)(3)#27 + x(2)(4)#28
                          + x(2)(5)#29 + x(2)(6)#30 + x(2)(7)#31 + x(2)(8)#32
                          + x(2)(9)#33 + x(2)(10)#34 + x(2)(11)#35 + y_2#145
                           = 1
 saidaDoCliente(3)#13:    x(3)(0)#36 + x(3)(1)#37 + x(3)(2)#38 + x(3)(4)#40
                          + x(3)(5)#41 + x(3)(6)#42 + x(3)(7)#43 + x(3)(8)#44
                          + x(3)(9)#45 + x(3)(10)#46 + x(3)(11)#47 + y_3#146
                           = 1
 saidaDoCliente(4)#14:    x(4)(0)#48 + x(4)(1)#49 + x(4)(2)#50 + x(4)(3)#51
                          + x(4)(5)#53 + x(4)(6)#54 + x(4)(7)#55 + x(4)(8)#56
                          + x(4)(9)#57 + x(4)(10)#58 + x(4)(11)#59 + y_4#147
                           = 1
 saidaDoCliente(5)#15:    x(5)(0)#60 + x(5)(1)#61 + x(5)(2)#62 + x(5)(3)#63
                          + x(5)(4)#64 + x(5)(6)#66 + x(5)(7)#67 + x(5)(8)#68
                          + x(5)(9)#69 + x(5)(10)#70 + x(5)(11)#71 + y_5#148
                           = 1
 saidaDoCliente(6)#16:    x(6)(0)#72 + x(6)(1)#73 + x(6)(2)#74 + x(6)(3)#75
                          + x(6)(4)#76 + x(6)(5)#77 + x(6)(7)#79 + x(6)(8)#80
                          + x(6)(9)#81 + x(6)(10)#82 + x(6)(11)#83 + y_6#149
                           = 1
 saidaDoCliente(7)#17:    x(7)(0)#84 + x(7)(1)#85 + x(7)(2)#86 + x(7)(3)#87
                          + x(7)(4)#88 + x(7)(5)#89 + x(7)(6)#90 + x(7)(8)#92
                          + x(7)(9)#93 + x(7)(10)#94 + x(7)(11)#95 + y_7#150
                           = 1
 saidaDoCliente(8)#18:    x(8)(0)#96 + x(8)(1)#97 + x(8)(2)#98 + x(8)(3)#99
                          + x(8)(4)#100 + x(8)(5)#101 + x(8)(6)#102
                          + x(8)(7)#103 + x(8)(9)#105 + x(8)(10)#106
                          + x(8)(11)#107 + y_8#151  = 1
 saidaDoCliente(9)#19:    x(9)(0)#108 + x(9)(1)#109 + x(9)(2)#110 + x(9)(3)#111
                          + x(9)(4)#112 + x(9)(5)#113 + x(9)(6)#114
                          + x(9)(7)#115 + x(9)(8)#116 + x(9)(10)#118
                          + x(9)(11)#119 + y_9#152  = 1
 saidaDoCliente(10)#20:   x(10)(0)#120 + x(10)(1)#121 + x(10)(2)#122
                          + x(10)(3)#123 + x(10)(4)#124 + x(10)(5)#125
                          + x(10)(6)#126 + x(10)(7)#127 + x(10)(8)#128
                          + x(10)(9)#129 + x(10)(11)#131 + y_10#153  = 1
 saidaDoCliente(11)#21:   x(11)(0)#132 + x(11)(1)#133 + x(11)(2)#134
                          + x(11)(3)#135 + x(11)(4)#136 + x(11)(5)#137
                          + x(11)(6)#138 + x(11)(7)#139 + x(11)(8)#140
                          + x(11)(9)#141 + x(11)(10)#142 + y_11#154  = 1
 saida_Deposito#22:       x(0)(1)#1 + x(0)(2)#2 + x(0)(3)#3 + x(0)(4)#4
                          + x(0)(5)#5 + x(0)(6)#6 + x(0)(7)#7 + x(0)(8)#8
                          + x(0)(9)#9 + x(0)(10)#10 + x(0)(11)#11  = 1
 retorno_Deposito#23:     x(1)(0)#12 + x(2)(0)#24 + x(3)(0)#36 + x(4)(0)#48
                          + x(5)(0)#60 + x(6)(0)#72 + x(7)(0)#84 + x(8)(0)#96
                          + x(9)(0)#108 + x(10)(0)#120 + x(11)(0)#132  = 0
 Ultimo_no#24:            y_1#144 + y_2#145 + y_3#146 + y_4#147 + y_5#148
                          + y_6#149 + y_7#150 + y_8#151 + y_9#152 + y_10#153
                          + y_11#154  = 1
 MTZ.GETOUT_0__1#25:      - 200 x(0)(1)#1 - u(1)#155 + u(0)#156 >= -200
 MTZ.GETOUT_0__2#26:      - 200 x(0)(2)#2 + u(0)#156 - u(2)#157 >= -200
 MTZ.GETOUT_0__3#27:      - 200 x(0)(3)#3 + u(0)#156 - u(3)#158 >= -200
 MTZ.GETOUT_0__4#28:      - 200 x(0)(4)#4 + u(0)#156 - u(4)#159 >= -200
 MTZ.GETOUT_0__5#29:      - 200 x(0)(5)#5 + u(0)#156 - u(5)#160 >= -200
 MTZ.GETOUT_0__6#30:      - 200 x(0)(6)#6 + u(0)#156 - u(6)#161 >= -200
 MTZ.GETOUT_0__7#31:      - 200 x(0)(7)#7 + u(0)#156 - u(7)#162 >= -200
 MTZ.GETOUT_0__8#32:      - 200 x(0)(8)#8 + u(0)#156 - u(8)#163 >= -200
 MTZ.GETOUT_0__9#33:      - 200 x(0)(9)#9 + u(0)#156 - u(9)#164 >= -200
 MTZ.GETOUT_0__10#34:     - 200 x(0)(10)#10 + u(0)#156 - u(10)#165 >= -200
 MTZ.GETOUT_0__11#35:     - 200 x(0)(11)#11 + u(0)#156 - u(11)#166 >= -200
 MTZ.GETOUT_1__0#36:      - 200 x(1)(0)#12 + u(1)#155 - u(0)#156 >= -190
 MTZ.GETOUT_1__2#37:      - 200 x(1)(2)#14 + u(1)#155 - u(2)#157 >= -190
 MTZ.GETOUT_1__3#38:      - 200 x(1)(3)#15 + u(1)#155 - u(3)#158 >= -190
 MTZ.GETOUT_1__4#39:      - 200 x(1)(4)#16 + u(1)#155 - u(4)#159 >= -190
 MTZ.GETOUT_1__5#40:      - 200 x(1)(5)#17 + u(1)#155 - u(5)#160 >= -190
 MTZ.GETOUT_1__6#41:      - 200 x(1)(6)#18 + u(1)#155 - u(6)#161 >= -190
 MTZ.GETOUT_1__7#42:      - 200 x(1)(7)#19 + u(1)#155 - u(7)#162 >= -190
 MTZ.GETOUT_1__8#43:      - 200 x(1)(8)#20 + u(1)#155 - u(8)#163 >= -190
 MTZ.GETOUT_1__9#44:      - 200 x(1)(9)#21 + u(1)#155 - u(9)#164 >= -190
 MTZ.GETOUT_1__10#45:     - 200 x(1)(10)#22 + u(1)#155 - u(10)#165 >= -190
 MTZ.GETOUT_1__11#46:     - 200 x(1)(11)#23 + u(1)#155 - u(11)#166 >= -190
 MTZ.GETOUT_2__0#47:      - 200 x(2)(0)#24 - u(0)#156 + u(2)#157 >= -170
 MTZ.GETOUT_2__1#48:      - 200 x(2)(1)#25 - u(1)#155 + u(2)#157 >= -170
 MTZ.GETOUT_2__3#49:      - 200 x(2)(3)#27 + u(2)#157 - u(3)#158 >= -170
 MTZ.GETOUT_2__4#50:      - 200 x(2)(4)#28 + u(2)#157 - u(4)#159 >= -170
 MTZ.GETOUT_2__5#51:      - 200 x(2)(5)#29 + u(2)#157 - u(5)#160 >= -170
 MTZ.GETOUT_2__6#52:      - 200 x(2)(6)#30 + u(2)#157 - u(6)#161 >= -170
 MTZ.GETOUT_2__7#53:      - 200 x(2)(7)#31 + u(2)#157 - u(7)#162 >= -170
 MTZ.GETOUT_2__8#54:      - 200 x(2)(8)#32 + u(2)#157 - u(8)#163 >= -170
 MTZ.GETOUT_2__9#55:      - 200 x(2)(9)#33 + u(2)#157 - u(9)#164 >= -170
 MTZ.GETOUT_2__10#56:     - 200 x(2)(10)#34 + u(2)#157 - u(10)#165 >= -170
 MTZ.GETOUT_2__11#57:     - 200 x(2)(11)#35 + u(2)#157 - u(11)#166 >= -170
 MTZ.GETOUT_3__0#58:      - 200 x(3)(0)#36 - u(0)#156 + u(3)#158 >= -190
 MTZ.GETOUT_3__1#59:      - 200 x(3)(1)#37 - u(1)#155 + u(3)#158 >= -190
 MTZ.GETOUT_3__2#60:      - 200 x(3)(2)#38 - u(2)#157 + u(3)#158 >= -190
 MTZ.GETOUT_3__4#61:      - 200 x(3)(4)#40 + u(3)#158 - u(4)#159 >= -190
 MTZ.GETOUT_3__5#62:      - 200 x(3)(5)#41 + u(3)#158 - u(5)#160 >= -190
 MTZ.GETOUT_3__6#63:      - 200 x(3)(6)#42 + u(3)#158 - u(6)#161 >= -190
 MTZ.GETOUT_3__7#64:      - 200 x(3)(7)#43 + u(3)#158 - u(7)#162 >= -190
 MTZ.GETOUT_3__8#65:      - 200 x(3)(8)#44 + u(3)#158 - u(8)#163 >= -190
 MTZ.GETOUT_3__9#66:      - 200 x(3)(9)#45 + u(3)#158 - u(9)#164 >= -190
 MTZ.GETOUT_3__10#67:     - 200 x(3)(10)#46 + u(3)#158 - u(10)#165 >= -190
 MTZ.GETOUT_3__11#68:     - 200 x(3)(11)#47 + u(3)#158 - u(11)#166 >= -190
 MTZ.GETOUT_4__0#69:      - 200 x(4)(0)#48 - u(0)#156 + u(4)#159 >= -190
 MTZ.GETOUT_4__1#70:      - 200 x(4)(1)#49 - u(1)#155 + u(4)#159 >= -190
 MTZ.GETOUT_4__2#71:      - 200 x(4)(2)#50 - u(2)#157 + u(4)#159 >= -190
 MTZ.GETOUT_4__3#72:      - 200 x(4)(3)#51 - u(3)#158 + u(4)#159 >= -190
 MTZ.GETOUT_4__5#73:      - 200 x(4)(5)#53 + u(4)#159 - u(5)#160 >= -190
 MTZ.GETOUT_4__6#74:      - 200 x(4)(6)#54 + u(4)#159 - u(6)#161 >= -190
 MTZ.GETOUT_4__7#75:      - 200 x(4)(7)#55 + u(4)#159 - u(7)#162 >= -190
 MTZ.GETOUT_4__8#76:      - 200 x(4)(8)#56 + u(4)#159 - u(8)#163 >= -190
 MTZ.GETOUT_4__9#77:      - 200 x(4)(9)#57 + u(4)#159 - u(9)#164 >= -190
 MTZ.GETOUT_4__10#78:     - 200 x(4)(10)#58 + u(4)#159 - u(10)#165 >= -190
 MTZ.GETOUT_4__11#79:     - 200 x(4)(11)#59 + u(4)#159 - u(11)#166 >= -190
 MTZ.GETOUT_5__0#80:      - 200 x(5)(0)#60 - u(0)#156 + u(5)#160 >= -190
 MTZ.GETOUT_5__1#81:      - 200 x(5)(1)#61 - u(1)#155 + u(5)#160 >= -190
 MTZ.GETOUT_5__2#82:      - 200 x(5)(2)#62 - u(2)#157 + u(5)#160 >= -190
 MTZ.GETOUT_5__3#83:      - 200 x(5)(3)#63 - u(3)#158 + u(5)#160 >= -190
 MTZ.GETOUT_5__4#84:      - 200 x(5)(4)#64 - u(4)#159 + u(5)#160 >= -190
 MTZ.GETOUT_5__6#85:      - 200 x(5)(6)#66 + u(5)#160 - u(6)#161 >= -190
 MTZ.GETOUT_5__7#86:      - 200 x(5)(7)#67 + u(5)#160 - u(7)#162 >= -190
 MTZ.GETOUT_5__8#87:      - 200 x(5)(8)#68 + u(5)#160 - u(8)#163 >= -190
 MTZ.GETOUT_5__9#88:      - 200 x(5)(9)#69 + u(5)#160 - u(9)#164 >= -190
 MTZ.GETOUT_5__10#89:     - 200 x(5)(10)#70 + u(5)#160 - u(10)#165 >= -190
 MTZ.GETOUT_5__11#90:     - 200 x(5)(11)#71 + u(5)#160 - u(11)#166 >= -190
 MTZ.GETOUT_6__0#91:      - 200 x(6)(0)#72 - u(0)#156 + u(6)#161 >= -180
 MTZ.GETOUT_6__1#92:      - 200 x(6)(1)#73 - u(1)#155 + u(6)#161 >= -180
 MTZ.GETOUT_6__2#93:      - 200 x(6)(2)#74 - u(2)#157 + u(6)#161 >= -180
 MTZ.GETOUT_6__3#94:      - 200 x(6)(3)#75 - u(3)#158 + u(6)#161 >= -180
 MTZ.GETOUT_6__4#95:      - 200 x(6)(4)#76 - u(4)#159 + u(6)#161 >= -180
 MTZ.GETOUT_6__5#96:      - 200 x(6)(5)#77 - u(5)#160 + u(6)#161 >= -180
 MTZ.GETOUT_6__7#97:      - 200 x(6)(7)#79 + u(6)#161 - u(7)#162 >= -180
 MTZ.GETOUT_6__8#98:      - 200 x(6)(8)#80 + u(6)#161 - u(8)#163 >= -180
 MTZ.GETOUT_6__9#99:      - 200 x(6)(9)#81 + u(6)#161 - u(9)#164 >= -180
 MTZ.GETOUT_6__10#100:    - 200 x(6)(10)#82 + u(6)#161 - u(10)#165 >= -180
 MTZ.GETOUT_6__11#101:    - 200 x(6)(11)#83 + u(6)#161 - u(11)#166 >= -180
 MTZ.GETOUT_7__0#102:     - 200 x(7)(0)#84 - u(0)#156 + u(7)#162 >= -180
 MTZ.GETOUT_7__1#103:     - 200 x(7)(1)#85 - u(1)#155 + u(7)#162 >= -180
 MTZ.GETOUT_7__2#104:     - 200 x(7)(2)#86 - u(2)#157 + u(7)#162 >= -180
 MTZ.GETOUT_7__3#105:     - 200 x(7)(3)#87 - u(3)#158 + u(7)#162 >= -180
 MTZ.GETOUT_7__4#106:     - 200 x(7)(4)#88 - u(4)#159 + u(7)#162 >= -180
 MTZ.GETOUT_7__5#107:     - 200 x(7)(5)#89 - u(5)#160 + u(7)#162 >= -180
 MTZ.GETOUT_7__6#108:     - 200 x(7)(6)#90 - u(6)#161 + u(7)#162 >= -180
 MTZ.GETOUT_7__8#109:     - 200 x(7)(8)#92 + u(7)#162 - u(8)#163 >= -180
 MTZ.GETOUT_7__9#110:     - 200 x(7)(9)#93 + u(7)#162 - u(9)#164 >= -180
 MTZ.GETOUT_7__10#111:    - 200 x(7)(10)#94 + u(7)#162 - u(10)#165 >= -180
 MTZ.GETOUT_7__11#112:    - 200 x(7)(11)#95 + u(7)#162 - u(11)#166 >= -180
 MTZ.GETOUT_8__0#113:     - 200 x(8)(0)#96 - u(0)#156 + u(8)#163 >= -180
 MTZ.GETOUT_8__1#114:     - 200 x(8)(1)#97 - u(1)#155 + u(8)#163 >= -180
 MTZ.GETOUT_8__2#115:     - 200 x(8)(2)#98 - u(2)#157 + u(8)#163 >= -180
 MTZ.GETOUT_8__3#116:     - 200 x(8)(3)#99 - u(3)#158 + u(8)#163 >= -180
 MTZ.GETOUT_8__4#117:     - 200 x(8)(4)#100 - u(4)#159 + u(8)#163 >= -180
 MTZ.GETOUT_8__5#118:     - 200 x(8)(5)#101 - u(5)#160 + u(8)#163 >= -180
 MTZ.GETOUT_8__6#119:     - 200 x(8)(6)#102 - u(6)#161 + u(8)#163 >= -180
 MTZ.GETOUT_8__7#120:     - 200 x(8)(7)#103 - u(7)#162 + u(8)#163 >= -180
 MTZ.GETOUT_8__9#121:     - 200 x(8)(9)#105 + u(8)#163 - u(9)#164 >= -180
 MTZ.GETOUT_8__10#122:    - 200 x(8)(10)#106 + u(8)#163 - u(10)#165 >= -180
 MTZ.GETOUT_8__11#123:    - 200 x(8)(11)#107 + u(8)#163 - u(11)#166 >= -180
 MTZ.GETOUT_9__0#124:     - 200 x(9)(0)#108 - u(0)#156 + u(9)#164 >= -190
 MTZ.GETOUT_9__1#125:     - 200 x(9)(1)#109 - u(1)#155 + u(9)#164 >= -190
 MTZ.GETOUT_9__2#126:     - 200 x(9)(2)#110 - u(2)#157 + u(9)#164 >= -190
 MTZ.GETOUT_9__3#127:     - 200 x(9)(3)#111 - u(3)#158 + u(9)#164 >= -190
 MTZ.GETOUT_9__4#128:     - 200 x(9)(4)#112 - u(4)#159 + u(9)#164 >= -190
 MTZ.GETOUT_9__5#129:     - 200 x(9)(5)#113 - u(5)#160 + u(9)#164 >= -190
 MTZ.GETOUT_9__6#130:     - 200 x(9)(6)#114 - u(6)#161 + u(9)#164 >= -190
 MTZ.GETOUT_9__7#131:     - 200 x(9)(7)#115 - u(7)#162 + u(9)#164 >= -190
 MTZ.GETOUT_9__8#132:     - 200 x(9)(8)#116 - u(8)#163 + u(9)#164 >= -190
 MTZ.GETOUT_9__10#133:    - 200 x(9)(10)#118 + u(9)#164 - u(10)#165 >= -190
 MTZ.GETOUT_9__11#134:    - 200 x(9)(11)#119 + u(9)#164 - u(11)#166 >= -190
 MTZ.GETOUT_10__0#135:    - 200 x(10)(0)#120 - u(0)#156 + u(10)#165 >= -190
 MTZ.GETOUT_10__1#136:    - 200 x(10)(1)#121 - u(1)#155 + u(10)#165 >= -190
 MTZ.GETOUT_10__2#137:    - 200 x(10)(2)#122 - u(2)#157 + u(10)#165 >= -190
 MTZ.GETOUT_10__3#138:    - 200 x(10)(3)#123 - u(3)#158 + u(10)#165 >= -190
 MTZ.GETOUT_10__4#139:    - 200 x(10)(4)#124 - u(4)#159 + u(10)#165 >= -190
 MTZ.GETOUT_10__5#140:    - 200 x(10)(5)#125 - u(5)#160 + u(10)#165 >= -190
 MTZ.GETOUT_10__6#141:    - 200 x(10)(6)#126 - u(6)#161 + u(10)#165 >= -190
 MTZ.GETOUT_10__7#142:    - 200 x(10)(7)#127 - u(7)#162 + u(10)#165 >= -190
 MTZ.GETOUT_10__8#143:    - 200 x(10)(8)#128 - u(8)#163 + u(10)#165 >= -190
 MTZ.GETOUT_10__9#144:    - 200 x(10)(9)#129 - u(9)#164 + u(10)#165 >= -190
 MTZ.GETOUT_10__11#145:   - 200 x(10)(11)#131 + u(10)#165 - u(11)#166 >= -190
 MTZ.GETOUT_11__0#146:    - 200 x(11)(0)#132 - u(0)#156 + u(11)#166 >= -190
 MTZ.GETOUT_11__1#147:    - 200 x(11)(1)#133 - u(1)#155 + u(11)#166 >= -190
 MTZ.GETOUT_11__2#148:    - 200 x(11)(2)#134 - u(2)#157 + u(11)#166 >= -190
 MTZ.GETOUT_11__3#149:    - 200 x(11)(3)#135 - u(3)#158 + u(11)#166 >= -190
 MTZ.GETOUT_11__4#150:    - 200 x(11)(4)#136 - u(4)#159 + u(11)#166 >= -190
 MTZ.GETOUT_11__5#151:    - 200 x(11)(5)#137 - u(5)#160 + u(11)#166 >= -190
 MTZ.GETOUT_11__6#152:    - 200 x(11)(6)#138 - u(6)#161 + u(11)#166 >= -190
 MTZ.GETOUT_11__7#153:    - 200 x(11)(7)#139 - u(7)#162 + u(11)#166 >= -190
 MTZ.GETOUT_11__8#154:    - 200 x(11)(8)#140 - u(8)#163 + u(11)#166 >= -190
 MTZ.GETOUT_11__9#155:    - 200 x(11)(9)#141 - u(9)#164 + u(11)#166 >= -190
 MTZ.GETOUT_11__10#156:   - 200 x(11)(10)#142 - u(10)#165 + u(11)#166 >= -190
 c158#157:                u(0)#156 >= 0
 c159#158:                u(0)#156 <= 200
 c160#159:                u(1)#155 >= 10
 c161#160:                u(1)#155 <= 200
 c162#161:                u(2)#157 >= 30
 c163#162:                u(2)#157 <= 200
 c164#163:                u(3)#158 >= 10
 c165#164:                u(3)#158 <= 200
 c166#165:                u(4)#159 >= 10
 c167#166:                u(4)#159 <= 200
 c168#167:                u(5)#160 >= 10
 c169#168:                u(5)#160 <= 200
 c170#169:                u(6)#161 >= 20
 c171#170:                u(6)#161 <= 200
 c172#171:                u(7)#162 >= 20
 c173#172:                u(7)#162 <= 200
 c174#173:                u(8)#163 >= 20
 c175#174:                u(8)#163 <= 200
 c176#175:                u(9)#164 >= 10
 c177#176:                u(9)#164 <= 200
 c178#177:                u(10)#165 >= 10
 c179#178:                u(10)#165 <= 200
 c180#179:                u(11)#166 >= 10
 c181#180:                u(11)#166 <= 200
Bounds
      x(0)(0)#0 = 0
      x(0)(1)#1 = 0
      x(0)(2)#2 = 0
      x(0)(3)#3 = 0
      x(0)(4)#4 = 0
      x(0)(5)#5 = 1
      x(0)(6)#6 = 0
      x(0)(7)#7 = 0
      x(0)(8)#8 = 0
      x(0)(9)#9 = 0
      x(0)(10)#10 = 0
      x(0)(11)#11 = 0
      x(1)(0)#12 = 0
      x(1)(1)#13 = 0
      x(1)(2)#14 = 1
      x(1)(3)#15 = 0
      x(1)(4)#16 = 0
      x(1)(5)#17 = 0
      x(1)(6)#18 = 0
      x(1)(7)#19 = 0
      x(1)(8)#20 = 0
      x(1)(9)#21 = 0
      x(1)(10)#22 = 0
      x(1)(11)#23 = 0
 0 <= x(2)(0)#24 <= 1
      x(2)(1)#25 = 0
      x(2)(2)#26 = 0
      x(2)(3)#27 = 0
      x(2)(4)#28 = 0
      x(2)(5)#29 = 0
      x(2)(6)#30 = 0
      x(2)(7)#31 = 0
      x(2)(8)#32 = 0
      x(2)(9)#33 = 0
      x(2)(10)#34 = 0
      x(2)(11)#35 = 0
      x(3)(0)#36 = 0
      x(3)(1)#37 = 0
      x(3)(2)#38 = 0
      x(3)(3)#39 = 0
      x(3)(4)#40 = 0
      x(3)(5)#41 = 0
      x(3)(6)#42 = 0
      x(3)(7)#43 = 1
      x(3)(8)#44 = 0
      x(3)(9)#45 = 0
      x(3)(10)#46 = 0
      x(3)(11)#47 = 0
      x(4)(0)#48 = 0
      x(4)(1)#49 = 1
      x(4)(2)#50 = 0
      x(4)(3)#51 = 0
      x(4)(4)#52 = 0
      x(4)(5)#53 = 0
      x(4)(6)#54 = 0
      x(4)(7)#55 = 0
      x(4)(8)#56 = 0
      x(4)(9)#57 = 0
      x(4)(10)#58 = 0
      x(4)(11)#59 = 0
      x(5)(0)#60 = 0
      x(5)(1)#61 = 0
      x(5)(2)#62 = 0
      x(5)(3)#63 = 1
      x(5)(4)#64 = 0
      x(5)(5)#65 = 0
      x(5)(6)#66 = 0
      x(5)(7)#67 = 0
      x(5)(8)#68 = 0
      x(5)(9)#69 = 0
      x(5)(10)#70 = 0
      x(5)(11)#71 = 0
      x(6)(0)#72 = 0
      x(6)(1)#73 = 0
      x(6)(2)#74 = 0
      x(6)(3)#75 = 0
      x(6)(4)#76 = 1
      x(6)(5)#77 = 0
      x(6)(6)#78 = 0
      x(6)(7)#79 = 0
      x(6)(8)#80 = 0
      x(6)(9)#81 = 0
      x(6)(10)#82 = 0
      x(6)(11)#83 = 0
      x(7)(0)#84 = 0
      x(7)(1)#85 = 0
      x(7)(2)#86 = 0
      x(7)(3)#87 = 0
      x(7)(4)#88 = 0
      x(7)(5)#89 = 0
      x(7)(6)#90 = 0
      x(7)(7)#91 = 0
      x(7)(8)#92 = 1
      x(7)(9)#93 = 0
      x(7)(10)#94 = 0
      x(7)(11)#95 = 0
      x(8)(0)#96 = 0
      x(8)(1)#97 = 0
      x(8)(2)#98 = 0
      x(8)(3)#99 = 0
      x(8)(4)#100 = 0
      x(8)(5)#101 = 0
      x(8)(6)#102 = 0
      x(8)(7)#103 = 0
      x(8)(8)#104 = 0
      x(8)(9)#105 = 1
      x(8)(10)#106 = 0
      x(8)(11)#107 = 0
      x(9)(0)#108 = 0
      x(9)(1)#109 = 0
      x(9)(2)#110 = 0
      x(9)(3)#111 = 0
      x(9)(4)#112 = 0
      x(9)(5)#113 = 0
      x(9)(6)#114 = 0
      x(9)(7)#115 = 0
      x(9)(8)#116 = 0
      x(9)(9)#117 = 0
      x(9)(10)#118 = 0
      x(9)(11)#119 = 1
      x(10)(0)#120 = 0
      x(10)(1)#121 = 0
      x(10)(2)#122 = 0
      x(10)(3)#123 = 0
      x(10)(4)#124 = 0
      x(10)(5)#125 = 0
      x(10)(6)#126 = 1
      x(10)(7)#127 = 0
      x(10)(8)#128 = 0
      x(10)(9)#129 = 0
      x(10)(10)#130 = 0
      x(10)(11)#131 = 0
      x(11)(0)#132 = 0
      x(11)(1)#133 = 0
      x(11)(2)#134 = 0
      x(11)(3)#135 = 0
      x(11)(4)#136 = 0
      x(11)(5)#137 = 0
      x(11)(6)#138 = 0
      x(11)(7)#139 = 0
      x(11)(8)#140 = 0
      x(11)(9)#141 = 0
      x(11)(10)#142 = 1
      x(11)(11)#143 = 0
      y_1#144 = 0
      y_2#145 = 0
      y_3#146 = 0
      y_4#147 = 0
      y_5#148 = 0
      y_6#149 = 0
      y_7#150 = 0
      y_8#151 = 0
      y_9#152 = 0
      y_10#153 = 0
      y_11#154 = 0
Binaries
 x(0)(0)#0  x(0)(1)#1  x(0)(2)#2  x(0)(3)#3  x(0)(4)#4  x(0)(5)#5  x(0)(6)#6 
 x(0)(7)#7  x(0)(8)#8  x(0)(9)#9  x(0)(10)#10  x(0)(11)#11  x(1)(0)#12 
 x(1)(1)#13  x(1)(2)#14  x(1)(3)#15  x(1)(4)#16  x(1)(5)#17  x(1)(6)#18 
 x(1)(7)#19  x(1)(8)#20  x(1)(9)#21  x(1)(10)#22  x(1)(11)#23  x(2)(0)#24 
 x(2)(1)#25  x(2)(2)#26  x(2)(3)#27  x(2)(4)#28  x(2)(5)#29  x(2)(6)#30 
 x(2)(7)#31  x(2)(8)#32  x(2)(9)#33  x(2)(10)#34  x(2)(11)#35  x(3)(0)#36 
 x(3)(1)#37  x(3)(2)#38  x(3)(3)#39  x(3)(4)#40  x(3)(5)#41  x(3)(6)#42 
 x(3)(7)#43  x(3)(8)#44  x(3)(9)#45  x(3)(10)#46  x(3)(11)#47  x(4)(0)#48 
 x(4)(1)#49  x(4)(2)#50  x(4)(3)#51  x(4)(4)#52  x(4)(5)#53  x(4)(6)#54 
 x(4)(7)#55  x(4)(8)#56  x(4)(9)#57  x(4)(10)#58  x(4)(11)#59  x(5)(0)#60 
 x(5)(1)#61  x(5)(2)#62  x(5)(3)#63  x(5)(4)#64  x(5)(5)#65  x(5)(6)#66 
 x(5)(7)#67  x(5)(8)#68  x(5)(9)#69  x(5)(10)#70  x(5)(11)#71  x(6)(0)#72 
 x(6)(1)#73  x(6)(2)#74  x(6)(3)#75  x(6)(4)#76  x(6)(5)#77  x(6)(6)#78 
 x(6)(7)#79  x(6)(8)#80  x(6)(9)#81  x(6)(10)#82  x(6)(11)#83  x(7)(0)#84 
 x(7)(1)#85  x(7)(2)#86  x(7)(3)#87  x(7)(4)#88  x(7)(5)#89  x(7)(6)#90 
 x(7)(7)#91  x(7)(8)#92  x(7)(9)#93  x(7)(10)#94  x(7)(11)#95  x(8)(0)#96 
 x(8)(1)#97  x(8)(2)#98  x(8)(3)#99  x(8)(4)#100  x(8)(5)#101  x(8)(6)#102 
 x(8)(7)#103  x(8)(8)#104  x(8)(9)#105  x(8)(10)#106  x(8)(11)#107 
 x(9)(0)#108  x(9)(1)#109  x(9)(2)#110  x(9)(3)#111  x(9)(4)#112  x(9)(5)#113 
 x(9)(6)#114  x(9)(7)#115  x(9)(8)#116  x(9)(9)#117  x(9)(10)#118 
 x(9)(11)#119  x(10)(0)#120  x(10)(1)#121  x(10)(2)#122  x(10)(3)#123 
 x(10)(4)#124  x(10)(5)#125  x(10)(6)#126  x(10)(7)#127  x(10)(8)#128 
 x(10)(9)#129  x(10)(10)#130  x(10)(11)#131  x(11)(0)#132  x(11)(1)#133 
 x(11)(2)#134  x(11)(3)#135  x(11)(4)#136  x(11)(5)#137  x(11)(6)#138 
 x(11)(7)#139  x(11)(8)#140  x(11)(9)#141  x(11)(10)#142  x(11)(11)#143 
 y_1#144  y_2#145  y_3#146  y_4#147  y_5#148  y_6#149  y_7#150  y_8#151 
 y_9#152  y_10#153  y_11#154 
End
